NAME: concorde91
TYPE: TSP
DIMENSION: 15 
EDGE_WEIGHT_TYPE: EUC_2D
NODE_COORD_SECTION
1 96 44
2 65 20
3 46 97
4 61 66
5 29 30
6 72 12
7 93 60
8 68 12
9 18 79
10 35 37
11 12 96
12 10 92
13 30 83
14 84 32
15 100 88
